100
37 0
19 0
28 0
6 3
10 1
10 4
14 3
11 4
28 2
38 1
16 3
3 4
12 0
23 3
41 4
33 0
16 4
22 4
9 4
3 3
9 0
22 0
15 3
13 4
1 2
2 3
2 2
42 3
18 0
38 2
29 0
41 0
42 4
23 2
27 2
4 4
1 0
7 3
39 0
14 4
12 2
30 1
36 1
0 4
25 0
39 1
7 4
5 4
15 4
13 1
9 1
23 0
34 0
25 4
34 4
19 3
10 3
30 0
31 2
42 1
33 3
25 3
18 4
29 3
11 1
32 0
23 4
27 3
4 3
37 2
2 0
33 4
13 0
12 4
4 0
7 0
37 4
5 0
37 1
28 4
29 1
2 1
20 0
12 1
20 2
21 0
22 2
40 4
6 2
18 3
14 0
11 0
19 4
24 0
31 3
41 3
32 1
31 0
21 4
20 1

